 $CONTRL COORD=UNIQUE UNITS=ANGS SCFTYP=RHF MAXIT=150
    RUNTYP=OPTIMIZE ICHARG=2 DFTTYP=wB97X
     $END
 $SCF DIRSCF=.TRUE.  $END
 
 $STATPT NSTEP=400 OPTTOL=0.0005 $END
 $SYSTEM MWORDS=512 MEMDDI=8192 $END
 $BASIS NGAUSS=6 GBASIS=N31 NDFUNC=1 $END
 $ELPOT IEPOT=1 WHERE=PDC $END
 $PDC PTSEL=CONNOLLY CONSTR=CHARGE VDWSCL=1.4 
    VDWINC=0.2 LAYER=4 PTDENS=1 MAXPDC=50000 $END
 $GUESS  GUESS=HUCKEL $END
 $PCM SOLVNT=WATER SMD=.TRUE. $END
 
 $DATA
wB97X/6-31G(d) OPT + ESP fit charges
C1
H 1.0 -0.013 -4.588 0.002
C 6.0 0.010 -3.484 0.001
C 6.0 -1.249 -2.834 0.001
N 7.0 -1.457 -1.462 0.000
C 6.0 -2.828 -1.250 0.000
C 6.0 -3.515 -2.533 0.000
H 1.0 -4.594 -2.656 -0.001
C 6.0 -2.535 -3.517 0.001
H 1.0 -2.662 -4.595 0.001
C 6.0 -3.473 0.011 -0.001
H 1.0 -4.578 -0.007 -0.003
C 6.0 -2.847 1.234 0.000
N 7.0 -1.448 1.456 0.001
C 6.0 -1.240 2.804 0.001
C 6.0 -2.542 3.511 0.000
H 1.0 -2.639 4.592 -0.001
C 6.0 -3.521 2.550 0.000
H 1.0 -4.601 2.673 0.000
C 6.0 0.017 3.459 0.001
H 1.0 0.005 4.560 0.003
C 6.0 1.232 2.810 0.000
N 7.0 1.446 1.430 -0.001
C 6.0 2.824 1.212 -0.001
C 6.0 3.519 2.535 -0.001
H 1.0 4.601 2.634 0.000
C 6.0 2.557 3.499 0.000
H 1.0 2.661 4.582 0.001
C 6.0 3.470 -0.005 -0.002
H 1.0 4.570 -0.021 -0.002
C 6.0 2.810 -1.261 -0.001
N 7.0 1.461 -1.464 -0.001
CU 29.0 0.003 -0.007 0.000
C 6.0 1.234 -2.862 0.000
C 6.0 2.548 -3.540 0.000
H 1.0 2.667 -4.621 0.000
C 6.0 3.512 -2.565 0.000
H 1.0 4.594 -2.666 0.000
 $END

