 $CONTRL COORD=UNIQUE UNITS=ANGS SCFTYP=RHF MAXIT=150
    RUNTYP=OPTIMIZE ICHARG=1 DFTTYP=wB97X
     $END
 $SCF DIRSCF=.TRUE.  $END
 
 $STATPT NSTEP=400 OPTTOL=0.0005 $END
 $SYSTEM MWORDS=512 MEMDDI=8192 $END
 $BASIS NGAUSS=6 GBASIS=N31 NDFUNC=1 $END
 $ELPOT IEPOT=1 WHERE=PDC $END
 $PDC PTSEL=CONNOLLY CONSTR=CHARGE VDWSCL=1.4 
    VDWINC=0.2 LAYER=4 PTDENS=1 MAXPDC=50000 $END
 $GUESS  GUESS=HUCKEL $END
 
 
 $DATA
wB97X/6-31G(d) OPT + ESP fit charges
C1
C 6.0 -1.361 -0.216 0.000
N 7.0 0.449 1.527 0.000
C 6.0 -1.035 1.274 0.000
O 8.0 -0.475 -1.101 0.000
O 8.0 -2.615 -0.466 0.000
ZN 30.0 1.345 -0.357 0.000
H 1.0 0.712 2.091 0.814
H 1.0 0.712 2.091 -0.814
H 1.0 -1.498 1.725 0.883
H 1.0 -1.498 1.725 -0.883
H 1.0 -2.844 -1.419 0.000
 $END

