 $CONTRL COORD=UNIQUE UNITS=ANGS SCFTYP=RHF MAXIT=150
    RUNTYP=OPTIMIZE ICHARG=-1 DFTTYP=wB97X
     $END
 $SCF DIRSCF=.TRUE.  $END
 
 $STATPT NSTEP=400 OPTTOL=0.0005 $END
 $SYSTEM MWORDS=512 MEMDDI=8192 $END
 $BASIS NGAUSS=6 GBASIS=N31 NDFUNC=1 $END
 $ELPOT IEPOT=1 WHERE=PDC $END
 $PDC PTSEL=CONNOLLY CONSTR=CHARGE VDWSCL=1.4 
    VDWINC=0.2 LAYER=4 PTDENS=1 MAXPDC=50000 $END
 $GUESS  GUESS=HUCKEL $END
 
 
 $DATA
wB97X/6-31G(d) OPT + ESP fit charges
C1
O 8.0 -0.079 3.363 0.487
O 8.0 -3.399 -1.373 0.342
O 8.0 3.401 -1.340 0.281
O 8.0 -0.217 1.637 -0.932
O 8.0 -1.779 -0.641 -1.045
O 8.0 1.839 -0.326 -1.002
N 7.0 0.036 -0.239 0.866
C 6.0 0.420 1.151 1.313
C 6.0 -1.338 -0.662 1.327
C 6.0 1.144 -1.219 1.112
C 6.0 0.003 2.178 0.258
C 6.0 -2.291 -0.928 0.138
C 6.0 2.270 -0.954 0.080
H 1.0 1.508 1.199 1.410
H 1.0 -0.025 1.369 2.286
H 1.0 -1.770 0.128 1.946
H 1.0 -1.254 -1.564 1.938
H 1.0 0.756 -2.233 0.966
H 1.0 1.510 -1.133 2.141
MG 12.0 -0.013 -0.150 -1.006
 $END

