 $CONTRL COORD=UNIQUE UNITS=ANGS SCFTYP=RHF MAXIT=150
    RUNTYP=OPTIMIZE ICHARG=2 DFTTYP=wB97X
     $END
 $SCF DIRSCF=.TRUE.  $END
 
 $STATPT NSTEP=400 OPTTOL=0.0005 $END
 $SYSTEM MWORDS=512 MEMDDI=8192 $END
 $BASIS NGAUSS=6 GBASIS=N31 NDFUNC=1 $END
 $ELPOT IEPOT=1 WHERE=PDC $END
 $PDC PTSEL=CONNOLLY CONSTR=CHARGE VDWSCL=1.4 
    VDWINC=0.2 LAYER=4 PTDENS=1 MAXPDC=50000 $END
 $GUESS  GUESS=HUCKEL $END
 
 
 $DATA
wB97X/6-31G(d) OPT + ESP fit charges
C1
FE 26.0 11.754 28.711 22.706
C 6.0 10.736 28.746 24.467
H 1.0 10.579 29.526 24.986
C 6.0 11.865 27.889 24.590
H 1.0 12.573 27.972 25.220
C 6.0 11.732 26.876 23.581
H 1.0 12.353 26.187 23.374
C 6.0 10.466 27.115 22.952
H 1.0 10.072 26.574 22.277
C 6.0 9.914 28.277 23.493
H 1.0 9.096 28.675 23.223
C 6.0 13.538 28.931 21.747
H 1.0 14.324 28.414 21.869
C 6.0 12.493 28.675 20.815
H 1.0 12.467 27.952 20.200
C 6.0 11.501 29.662 20.953
H 1.0 10.682 29.696 20.478
C 6.0 11.940 30.597 21.921
H 1.0 11.496 31.399 22.171
C 6.0 13.180 30.110 22.455
C 6.0 13.803 30.813 23.675
O 8.0 13.404 31.782 24.320
O 8.0 14.970 30.238 24.061
H 1.0 15.341 30.700 24.831
 $END

