 $CONTRL COORD=UNIQUE UNITS=ANGS SCFTYP=RHF MAXIT=150
    RUNTYP=OPTIMIZE ICHARG=0 DFTTYP=wB97X
     $END
 $SCF DIRSCF=.TRUE.  $END
 
 $STATPT NSTEP=400 OPTTOL=0.0005 $END
 $SYSTEM MWORDS=512 MEMDDI=8192 $END
 $BASIS NGAUSS=6 GBASIS=N31 NDFUNC=1 $END
 $ELPOT IEPOT=1 WHERE=PDC $END
 $PDC PTSEL=CONNOLLY CONSTR=CHARGE VDWSCL=1.4 
    VDWINC=0.2 LAYER=4 PTDENS=1 MAXPDC=50000 $END
 $GUESS  GUESS=HUCKEL $END
 $PCM SOLVNT=WATER SMD=.TRUE. $END
 
 $DATA
wB97X/6-31G(d) OPT + ESP fit charges
C1
C 6.0 -1.690 1.182 0.271
C 6.0 -1.690 0.107 1.208
C 6.0 -1.689 -1.116 0.475
C 6.0 -1.689 -0.797 -0.914
C 6.0 -1.689 0.623 -1.040
H 1.0 -1.666 2.235 0.512
H 1.0 -1.666 0.202 2.284
H 1.0 -1.664 -2.110 0.899
H 1.0 -1.664 -1.507 -1.729
H 1.0 -1.665 1.178 -1.967
C 6.0 1.689 -0.130 -1.206
C 6.0 1.689 1.107 -0.496
C 6.0 1.690 -1.187 -0.249
H 1.0 1.665 -0.246 -2.280
C 6.0 1.689 0.814 0.899
H 1.0 1.663 2.093 -0.938
C 6.0 1.689 -0.603 1.052
H 1.0 1.666 -2.244 -0.471
H 1.0 1.664 1.539 1.700
H 1.0 1.665 -1.141 1.989
FE 26.0 0.000 0.000 0.000
 $END

