 $CONTRL COORD=UNIQUE UNITS=ANGS SCFTYP=RHF MAXIT=150
    RUNTYP=OPTIMIZE ICHARG=0 DFTTYP=wB97X
     $END
 $SCF DIRSCF=.TRUE.  $END
 
 $STATPT NSTEP=400 OPTTOL=0.0005 $END
 $SYSTEM MWORDS=512 MEMDDI=8192 $END
 $BASIS NGAUSS=6 GBASIS=N31 NDFUNC=1 $END
 $ELPOT IEPOT=1 WHERE=PDC $END
 $PDC PTSEL=CONNOLLY CONSTR=CHARGE VDWSCL=1.4 
    VDWINC=0.2 LAYER=4 PTDENS=1 MAXPDC=50000 $END
 $GUESS  GUESS=HUCKEL $END
 $PCM SOLVNT=WATER SMD=.TRUE. $END
 
 $DATA
wB97X/6-31G(d) OPT + ESP fit charges
C1
CU 29.0 0.000 0.000 0.000
O 8.0 0.000 0.000 1.900
O 8.0 1.893 0.000 -0.161
O 8.0 -1.679 -0.886 -0.071
O 8.0 -0.215 0.886 -1.667
C 6.0 1.042 0.013 2.640
C 6.0 2.718 -0.011 0.815
C 6.0 -2.527 -0.790 -1.023
C 6.0 -1.240 0.799 -2.424
C 6.0 2.367 0.003 2.174
C 6.0 -2.372 0.006 -2.169
C 6.0 0.769 0.038 4.127
C 6.0 4.177 -0.037 0.417
C 6.0 -3.780 -1.618 -0.847
C 6.0 -1.178 1.632 -3.685
H 1.0 3.164 0.004 2.907
H 1.0 -3.171 0.010 -2.899
H 1.0 0.174 -0.840 4.399
H 1.0 0.167 0.919 4.370
H 1.0 1.685 0.052 4.722
H 1.0 4.393 0.829 -0.217
H 1.0 4.371 -0.930 -0.185
H 1.0 4.848 -0.031 1.278
H 1.0 -4.278 -1.325 0.082
H 1.0 -3.504 -2.672 -0.743
H 1.0 -4.476 -1.509 -1.680
H 1.0 -0.295 1.345 -4.264
H 1.0 -1.055 2.686 -3.415
H 1.0 -2.070 1.521 -4.305
 $END

