 $CONTRL COORD=UNIQUE UNITS=ANGS SCFTYP=RHF MAXIT=150
    RUNTYP=OPTIMIZE ICHARG=0 DFTTYP=wB97X
     $END
 $SCF DIRSCF=.TRUE.  $END
 
 $STATPT NSTEP=400 OPTTOL=0.0005 $END
 $SYSTEM MWORDS=512 MEMDDI=8192 $END
 $BASIS NGAUSS=6 GBASIS=N31 NDFUNC=1 $END
 $ELPOT IEPOT=1 WHERE=PDC $END
 $PDC PTSEL=CONNOLLY CONSTR=CHARGE VDWSCL=1.4 
    VDWINC=0.2 LAYER=4 PTDENS=1 MAXPDC=50000 $END
 $GUESS  GUESS=HUCKEL $END
 $PCM SOLVNT=WATER SMD=.TRUE. $END
 
 $DATA
wB97X/6-31G(d) OPT + ESP fit charges
C1
C 6.0 -4.418 0.638 0.006
C 6.0 -4.445 -0.752 0.005
C 6.0 -2.991 1.031 0.006
C 6.0 -3.041 -1.169 0.005
C 6.0 -2.440 2.432 0.002
N 7.0 -2.258 -0.011 0.000
C 6.0 -2.551 -2.437 0.007
C 6.0 -1.120 2.818 0.004
C 6.0 -1.089 -2.849 0.004
N 7.0 -0.016 2.016 0.025
C 6.0 -0.722 4.145 -0.019
N 7.0 0.007 -2.042 0.027
C 6.0 -0.679 -4.171 -0.024
C 6.0 1.075 2.830 0.003
MG 12.0 -0.050 -0.014 0.107
C 6.0 0.661 4.153 -0.020
C 6.0 1.105 -2.841 0.003
C 6.0 0.705 -4.166 -0.025
C 6.0 2.391 2.455 0.002
C 6.0 2.554 -2.414 0.006
C 6.0 2.937 1.058 0.008
C 6.0 3.013 -1.138 0.007
N 7.0 2.208 0.009 0.005
C 6.0 4.367 0.681 0.007
C 6.0 4.411 -0.705 0.006
H 1.0 -5.288 1.284 0.006
H 1.0 -5.335 -1.371 0.005
H 1.0 -3.187 3.224 -0.012
H 1.0 -3.280 -3.245 0.005
H 1.0 -1.361 5.020 -0.036
H 1.0 -1.313 -5.049 -0.043
H 1.0 1.291 5.035 -0.037
H 1.0 1.346 -5.039 -0.044
H 1.0 3.135 3.250 -0.012
H 1.0 3.297 -3.208 0.002
H 1.0 5.232 1.337 0.005
H 1.0 5.309 -1.313 0.005
 $END

