 $CONTRL COORD=UNIQUE UNITS=ANGS SCFTYP=RHF MAXIT=150
    RUNTYP=OPTIMIZE ICHARG=0 DFTTYP=wB97X
     $END
 $SCF DIRSCF=.TRUE.  $END
 
 $STATPT NSTEP=400 OPTTOL=0.0005 $END
 $SYSTEM MWORDS=512 MEMDDI=8192 $END
 $BASIS NGAUSS=6 GBASIS=N31 NDFUNC=1 $END
 $ELPOT IEPOT=1 WHERE=PDC $END
 $PDC PTSEL=CONNOLLY CONSTR=CHARGE VDWSCL=1.4 
    VDWINC=0.2 LAYER=4 PTDENS=1 MAXPDC=50000 $END
 $GUESS  GUESS=HUCKEL $END
 $PCM SOLVNT=WATER SMD=.TRUE. $END
 
 $DATA
wB97X/6-31G(d) OPT + ESP fit charges
C1
C 6.0 0.000 2.807 1.104
C 6.0 0.000 4.214 0.677
C 6.0 0.000 4.213 -0.677
C 6.0 0.000 2.805 -1.102
N 7.0 0.000 1.929 -0.001
H 1.0 0.000 5.040 1.362
H 1.0 0.000 5.038 -1.363
C 6.0 0.000 0.677 -4.214
C 6.0 0.000 -0.677 -4.214
C 6.0 0.000 -1.104 -2.806
N 7.0 0.000 0.000 -1.929
H 1.0 0.000 1.362 -5.040
H 1.0 0.000 -1.362 -5.040
C 6.0 0.000 -2.805 -1.102
C 6.0 0.000 -4.213 -0.677
C 6.0 0.000 -4.214 0.677
C 6.0 0.000 -2.807 1.104
N 7.0 0.000 -1.929 -0.001
H 1.0 0.000 -5.038 -1.363
H 1.0 0.000 -5.040 1.362
C 6.0 0.000 -1.103 2.806
C 6.0 0.000 -0.678 4.212
C 6.0 0.000 0.678 4.212
C 6.0 0.000 1.103 2.806
N 7.0 0.000 0.000 1.929
H 1.0 0.000 -1.362 5.038
H 1.0 0.000 1.362 5.038
C 6.0 0.000 1.104 -2.806
FE 26.0 0.000 0.000 0.001
C 6.0 0.000 2.431 2.430
H 1.0 0.000 3.204 3.205
C 6.0 0.000 -2.431 2.430
H 1.0 0.000 -3.204 3.205
C 6.0 0.000 -2.429 -2.431
H 1.0 0.000 -3.204 -3.204
C 6.0 0.000 2.429 -2.431
H 1.0 0.000 3.204 -3.204
 $END

