 $CONTRL COORD=UNIQUE UNITS=ANGS SCFTYP=RHF MAXIT=150
    RUNTYP=OPTIMIZE ICHARG=0 DFTTYP=wB97X
     $END
 $SCF DIRSCF=.TRUE.  $END
 
 $STATPT NSTEP=400 OPTTOL=0.0005 $END
 $SYSTEM MWORDS=512 MEMDDI=8192 $END
 $BASIS NGAUSS=6 GBASIS=N31 NDFUNC=1 $END
 $ELPOT IEPOT=1 WHERE=PDC $END
 $PDC PTSEL=CONNOLLY CONSTR=CHARGE VDWSCL=1.4 
    VDWINC=0.2 LAYER=4 PTDENS=1 MAXPDC=50000 $END
 $GUESS  GUESS=HUCKEL $END
 $PCM SOLVNT=WATER SMD=.TRUE. $END
 
 $DATA
wB97X/6-31G(d) OPT + ESP fit charges
C1
C 6.0 2.433 2.429 0.002
C 6.0 2.429 -2.433 -0.002
C 6.0 -2.432 -2.429 0.003
C 6.0 -2.429 2.432 -0.002
N 7.0 2.037 -0.002 0.050
C 6.0 2.857 1.094 0.027
C 6.0 4.237 0.673 -0.020
C 6.0 4.236 -0.679 -0.021
C 6.0 2.856 -1.098 0.025
N 7.0 -0.001 -2.037 -0.049
C 6.0 1.094 -2.857 -0.026
C 6.0 0.673 -4.237 0.021
C 6.0 -0.679 -4.236 0.022
C 6.0 -1.098 -2.856 -0.024
N 7.0 -2.036 0.001 0.051
C 6.0 -2.857 -1.094 0.028
C 6.0 -4.237 -0.673 -0.017
C 6.0 -4.236 0.679 -0.019
C 6.0 -2.855 1.098 0.026
N 7.0 0.002 2.036 -0.050
C 6.0 -1.094 2.857 -0.027
C 6.0 -0.673 4.237 0.019
C 6.0 0.679 4.236 0.020
C 6.0 1.098 2.855 -0.025
ZN 30.0 0.000 0.000 0.000
H 1.0 5.101 1.318 -0.074
H 1.0 5.099 -1.326 -0.076
H 1.0 1.319 -5.101 0.075
H 1.0 -1.325 -5.099 0.078
H 1.0 -5.100 -1.319 -0.070
H 1.0 -5.099 1.325 -0.074
H 1.0 -1.318 5.100 0.072
H 1.0 1.326 5.098 0.075
H 1.0 -3.185 3.189 -0.003
H 1.0 -3.490 -3.486 0.005
H 1.0 3.491 3.485 0.003
H 1.0 3.486 -3.491 -0.004
 $END

